datasets/2-dimensional/CL_06_25_10.vbp
2
150 150 
25
53 74 30
45 67 72
65 30 4
23 87 88
97 69 54
91 74 64
77 66 90
73 36 26
42 82 94
56 89 28
53 47 72
77 55 49
40 77 54
38 24 19
38 73 28
28 29 61
28 44 84
82 55 23
21 27 67
23 30 53
52 82 54
99 68 16
22 60 9
26 74 54
21 75 77
