datasets/2-dimensional-benchmark/CL_06_25_10.txt
150 150 
0 30 53 74 
1 72 45 67 
2 4 65 30 
3 88 23 87 
4 54 97 69 
5 64 91 74 
6 90 77 66 
7 26 73 36 
8 94 42 82 
9 28 56 89 
10 72 53 47 
11 49 77 55 
12 54 40 77 
13 19 38 24 
14 28 38 73 
15 61 28 29 
16 84 28 44 
17 23 82 55 
18 67 21 27 
19 53 23 30 
20 54 52 82 
21 16 99 68 
22 9 22 60 
23 54 26 74 
24 77 21 75 
